26 51
1 2 
3 4 
4 5 
5 6 
6 7 
7 8 
8 9 
9 10 
10 11 
11 12 
12 13 
2 14 
13 15 
15 16 
16 17 
17 18 
18 19 
1 20 
19 21 22 23 24 25 26 27 28 29 30 31 32 33 34 35 36 37 38 39 40 41 42 43 44 45 20 
14 46 
46 47 
47 48 
48 49 
49 50 
50 51 
51 3 
